p cnf 66 148
c 1 Gpl
c 2 MainGpl
c 3 Test
c 4 StartHere
c 5 Base
c 6 Benchmark
c 7 Prog
c 8 Implementation
c 9 NoEdges
c 10 OnlyNeighbors
c 11 Edges
c 12 GraphType
c 13 Directed
c 14 Undirected
c 15 GraphTypeReal
c 16 DirType
c 17 UndirType
c 18 DirectedCommon
c 19 Dir
c 20 DirectedGR
c 21 DirectedGnR
c 22 DirectedGenR
c 23 UndirectedCommon
c 24 Undir
c 25 UndirectedGR
c 26 UndirectedGnR
c 27 UndirectedGenR
c 28 Weight
c 29 Wgt
c 30 UnWeighted
c 31 Weighted
c 32 WeightedCommon
c 33 dProgdWeightedCommon
c 34 WeightReal
c 35 WeightedGR
c 36 WeightedGnR
c 37 WeightedGenR
c 38 SearchCommon
c 39 Search
c 40 DFS
c 41 BFS
c 42 Alg
c 43 Num
c 44 Conn
c 45 StrongC
c 46 Cyc
c 47 MPrim
c 48 MKrus
c 49 Shortest
c 50 Number
c 51 dProgdNumber
c 52 Connected
c 53 dProgdConnected
c 54 Transpose
c 55 StronglyConnected
c 56 dProgdStronglyConnected
c 57 Cycle
c 58 dProgdCycle
c 59 MSTPrimPrepGnR
c 60 MSTPrimPrepGR
c 61 MSTPrim
c 62 dProgdMSTPrim
c 63 MSTKruskalPrepGnR
c 64 MSTKruskalPrepGR
c 65 MSTKruskal
c 66 dProgdMSTKruskal
1
-1 2
-2 1
-2 3
-3 2
-3 4
-4 3
-4 5
-5 4
-6 4
-7 4
-8 2
-8 9 10 11
-9 -10
-9 -11
-9 8
-10 -11
-10 8
-11 8
-12 2
-12 13 14
-13 -14
-13 12
-14 12
-15 2
-15 16 17
-16 -17
-16 15
-17 15
-16 18
-18 16
-16 19
-19 16
-19 20 21 22
-20 -21
-20 -22
-20 19
-21 -22
-21 19
-22 19
-17 23
-23 17
-17 24
-24 17
-24 25 26 27
-25 -26
-25 -27
-25 24
-26 -27
-26 24
-27 24
-28 2
-28 29 30
-29 -30
-29 28
-30 28
-29 31
-31 29
-32 29
-33 29
-34 2
-34 35 36 37
-35 -36
-35 -37
-35 34
-36 -37
-36 34
-37 34
-38 2
-39 2
-39 40 41
-40 -41
-40 39
-41 39
-42 2
-42 43 44 45 46 47 48 49
-43 42
-44 42
-45 42
-46 42
-47 42
-48 42
-49 42
-43 50
-50 43
-51 43
-44 52
-52 44
-53 44
-54 45
-45 55
-55 45
-56 45
-46 57
-57 46
-58 46
-59 47
-60 47
-47 61
-61 47
-62 47
-63 48
-64 48
-48 65
-65 48
-66 48
-50 12
-50 39
-52 14
-52 39
-55 13
-55 40
-55 54
-57 12
-57 40
-65 14
-65 31
-61 14
-61 31
-49 13
-49 31
-65 -65 -61
-61 -65 -61
-13 -9 20
-13 -10 21
-13 -11 22
-14 -9 25
-14 -10 26
-14 -11 27
-31 32
-31 -9 35
-31 -10 36
-31 -11 37
-7 6
-7 -31 33
-7 -50 51
-7 -52 53
-7 -55 56
-7 -57 58
-7 -61 62
-61 -9 60
-61 -10 59
-7 -61 62
-7 -65 66
-65 -9 64
-65 -10 63
-39 38
-7 6